
Gurobi 11.0.3 (linux64) logging started Fri Nov 22 10:12:18 2024

Set parameter LogFile to value "/home/yihong/Coding/OR_SUC/SUC_results_bigM100000_thread4/case24_ieee_rts_theta0.1_epsilon0.05_gurobi_seed810000_num_gen100_N_WDR100_load_scaling_factor1_proposed_T24quadra_cost.txt"
Set parameter TimeLimit to value 3600
Gurobi Optimizer version 11.0.3 build v11.0.3rc0 (linux64 - "Ubuntu 20.04.6 LTS")

CPU model: AMD EPYC 7532 32-Core Processor, instruction set [SSE2|AVX|AVX2]
Thread count: 64 physical cores, 128 logical processors, using up to 4 threads

Optimize a model with 57558 rows, 29861 columns and 1315898 nonzeros
Model fingerprint: 0x630cdc54
Model has 2400 quadratic constraints
Variable types: 27461 continuous, 2400 integer (2400 binary)
Coefficient statistics:
  Matrix range     [3e-04, 2e+03]
  QMatrix range    [2e-03, 8e-03]
  QLMatrix range   [4e-01, 6e+01]
  Objective range  [1e+00, 1e+00]
  Bounds range     [1e+00, 1e+00]
  RHS range        [1e+00, 9e+03]
Presolve removed 47108 rows and 12695 columns
Presolve time: 0.51s
Presolved: 10450 rows, 17166 columns, 58834 nonzeros
Presolved model has 2400 quadratic constraint(s)
Variable types: 14766 continuous, 2400 integer (2400 binary)

Root relaxation: objective 3.758844e+04, 8393 iterations, 0.27 seconds (0.37 work units)

    Nodes    |    Current Node    |     Objective Bounds      |     Work
 Expl Unexpl |  Obj  Depth IntInf | Incumbent    BestBd   Gap | It/Node Time

H    0     0                    672243.58912 37588.4371  94.4%     -    1s
*    0     0               0    672243.58912 37588.4371  94.4%     -    1s
     0     0 398090.532    0  673 672243.589 398090.532  40.8%     -    1s
     0     0 630160.632    0  346 672243.589 630160.632  6.26%     -    2s
     0     0 630325.590    0   61 672243.589 630325.590  6.24%     -    2s
     0     0 630326.847    0   65 672243.589 630326.847  6.24%     -    2s
     0     0 630329.137    0   65 672243.589 630329.137  6.24%     -    2s
     0     0 630329.137    0   65 672243.589 630329.137  6.24%     -    3s
     0     0 630329.194    0   65 672243.589 630329.194  6.24%     -    3s
     0     2 630329.194    0   65 672243.589 630329.194  6.24%     -    9s
    31    45 630402.822    7   70 672243.589 630344.296  6.23%  82.3   10s
H  144   156                    630688.17175 630355.466  0.05%  58.5   13s
*  144   156              36    630688.17175 630355.466  0.05%  58.5   13s

Cutting planes:
  Gomory: 37
  Lift-and-project: 28
  Implied bound: 250
  MIR: 16
  Flow cover: 86
  RLT: 325
  Relax-and-lift: 86

Explored 176 nodes (32156 simplex iterations) in 13.62 seconds (14.58 work units)
Thread count was 4 (of 128 available processors)

Solution count 3: 630688 630688 672244 

Optimal solution found (tolerance 1.00e-03)
Warning: max constraint violation (1.1622e-07) exceeds tolerance
Best objective 6.306881717536e+05, best bound 6.303554659054e+05, gap 0.0528%
